language Essence 1.3

letting blksize_delta be function(1 --> 7, 2 --> 7, 3 --> 7, 4 --> 7, 5 --> 7)
letting maxcars be function(1 --> 10, 2 --> 10, 3 --> 10, 4 --> 10, 5 --> 10)
letting n_cars be 292
letting n_classes be 110
letting n_options be 5
letting quantity be
        function(1 --> 9, 2 --> 6, 3 --> 61, 4 --> 2, 5 --> 4, 6 --> 2, 7 --> 2, 8 --> 2, 9 --> 2, 10 --> 2, 11 --> 2,
                 12 --> 2, 13 --> 2, 14 --> 2, 15 --> 2, 16 --> 2, 17 --> 2, 18 --> 2, 19 --> 2, 20 --> 2, 21 --> 2,
                 22 --> 2, 23 --> 2, 24 --> 2, 25 --> 2, 26 --> 2, 27 --> 2, 28 --> 2, 29 --> 2, 30 --> 2, 31 --> 2,
                 32 --> 2, 33 --> 2, 34 --> 2, 35 --> 2, 36 --> 2, 37 --> 2, 38 --> 2, 39 --> 2, 40 --> 2, 41 --> 2,
                 42 --> 2, 43 --> 2, 44 --> 2, 45 --> 2, 46 --> 2, 47 --> 2, 48 --> 2, 49 --> 2, 50 --> 2, 51 --> 2,
                 52 --> 2, 53 --> 2, 54 --> 2, 55 --> 2, 56 --> 2, 57 --> 2, 58 --> 2, 59 --> 2, 60 --> 2, 61 --> 2,
                 62 --> 2, 63 --> 2, 64 --> 2, 65 --> 2, 66 --> 2, 67 --> 2, 68 --> 2, 69 --> 2, 70 --> 2, 71 --> 2,
                 72 --> 2, 73 --> 2, 74 --> 2, 75 --> 2, 76 --> 2, 77 --> 2, 78 --> 2, 79 --> 2, 80 --> 2, 81 --> 2,
                 82 --> 2, 83 --> 2, 84 --> 2, 85 --> 2, 86 --> 2, 87 --> 2, 88 --> 2, 89 --> 2, 90 --> 2, 91 --> 2,
                 92 --> 2, 93 --> 2, 94 --> 2, 95 --> 2, 96 --> 2, 97 --> 2, 98 --> 2, 99 --> 2, 100 --> 2, 101 --> 2,
                 102 --> 2, 103 --> 2, 104 --> 2, 105 --> 2, 106 --> 2, 107 --> 2, 108 --> 2, 109 --> 2, 110 --> 2)
letting usage be
        relation((1, 3), (1, 5), (2, 2), (3, 2), (3, 4), (3, 5), (4, 1), (4, 2), (4, 5), (5, 3), (5, 5), (6, 2), (6, 4),
                 (7, 2), (7, 5), (8, 4), (8, 5), (9, 2), (9, 3), (9, 4), (10, 2), (10, 3), (10, 4), (11, 2), (11, 4),
                 (11, 5), (12, 1), (12, 2), (12, 3), (13, 1), (13, 2), (13, 3), (13, 5), (14, 1), (14, 4), (14, 5),
                 (15, 1), (15, 4), (15, 5), (16, 2), (17, 5), (18, 1), (18, 2), (18, 3), (19, 1), (20, 2), (20, 5),
                 (21, 2), (21, 3), (22, 5), (23, 1), (23, 2), (24, 1), (24, 4), (24, 5), (25, 1), (25, 2), (25, 3),
                 (26, 3), (26, 4), (27, 1), (27, 2), (28, 1), (29, 1), (29, 2), (29, 4), (30, 3), (31, 1), (32, 1),
                 (32, 2), (32, 3), (32, 4), (33, 2), (33, 3), (33, 4), (34, 1), (35, 5), (36, 5), (37, 5), (38, 1),
                 (38, 4), (39, 3), (40, 1), (41, 1), (41, 3), (41, 4), (42, 2), (42, 4), (43, 2), (43, 3), (43, 4),
                 (44, 1), (44, 3), (45, 3), (46, 1), (46, 2), (46, 4), (47, 1), (48, 3), (49, 2), (49, 4), (50, 5),
                 (51, 3), (52, 1), (52, 2), (53, 1), (54, 1), (54, 4), (55, 1), (55, 3), (56, 2), (57, 3), (58, 1),
                 (58, 3), (58, 4), (59, 1), (59, 3), (60, 1), (60, 2), (60, 4), (61, 3), (62, 3), (62, 4), (63, 1),
                 (64, 3), (64, 4), (65, 3), (66, 5), (67, 5), (68, 4), (69, 4), (70, 1), (70, 4), (71, 1), (71, 2),
                 (71, 3), (72, 2), (73, 1), (73, 3), (73, 4), (74, 1), (75, 1), (75, 2), (75, 3), (76, 2), (76, 3),
                 (76, 4), (77, 1), (77, 2), (77, 3), (78, 4), (79, 1), (79, 2), (79, 3), (80, 2), (80, 3), (80, 4),
                 (81, 4), (82, 1), (82, 2), (83, 2), (84, 1), (84, 2), (84, 3), (85, 2), (85, 3), (86, 2), (87, 3),
                 (88, 1), (88, 2), (88, 3), (89, 3), (89, 4), (90, 2), (90, 3), (91, 5), (92, 4), (93, 1), (93, 4),
                 (94, 3), (95, 1), (95, 2), (95, 3), (95, 4), (96, 4), (97, 1), (97, 3), (98, 2), (98, 3), (98, 4),
                 (99, 5), (100, 3), (101, 2), (102, 4), (103, 3), (103, 4), (104, 4), (105, 1), (106, 1), (106, 2),
                 (107, 1), (107, 4), (108, 1), (108, 2), (108, 4), (109, 2), (109, 3), (110, 5))
$ Visualisation for usage
$   1   3
$   1   5
$   2   2
$   3   2
$   3   4
$   3   5
$   4   1
$   4   2
$   4   5
$   5   3
$   5   5
$   6   2
$   6   4
$   7   2
$   7   5
$   8   4
$   8   5
$   9   2
$   9   3
$   9   4
$  10   2
$  10   3
$  10   4
$  11   2
$  11   4
$  11   5
$  12   1
$  12   2
$  12   3
$  13   1
$  13   2
$  13   3
$  13   5
$  14   1
$  14   4
$  14   5
$  15   1
$  15   4
$  15   5
$  16   2
$  17   5
$  18   1
$  18   2
$  18   3
$  19   1
$  20   2
$  20   5
$  21   2
$  21   3
$  22   5
$  23   1
$  23   2
$  24   1
$  24   4
$  24   5
$  25   1
$  25   2
$  25   3
$  26   3
$  26   4
$  27   1
$  27   2
$  28   1
$  29   1
$  29   2
$  29   4
$  30   3
$  31   1
$  32   1
$  32   2
$  32   3
$  32   4
$  33   2
$  33   3
$  33   4
$  34   1
$  35   5
$  36   5
$  37   5
$  38   1
$  38   4
$  39   3
$  40   1
$  41   1
$  41   3
$  41   4
$  42   2
$  42   4
$  43   2
$  43   3
$  43   4
$  44   1
$  44   3
$  45   3
$  46   1
$  46   2
$  46   4
$  47   1
$  48   3
$  49   2
$  49   4
$  50   5
$  51   3
$  52   1
$  52   2
$  53   1
$  54   1
$  54   4
$  55   1
$  55   3
$  56   2
$  57   3
$  58   1
$  58   3
$  58   4
$  59   1
$  59   3
$  60   1
$  60   2
$  60   4
$  61   3
$  62   3
$  62   4
$  63   1
$  64   3
$  64   4
$  65   3
$  66   5
$  67   5
$  68   4
$  69   4
$  70   1
$  70   4
$  71   1
$  71   2
$  71   3
$  72   2
$  73   1
$  73   3
$  73   4
$  74   1
$  75   1
$  75   2
$  75   3
$  76   2
$  76   3
$  76   4
$  77   1
$  77   2
$  77   3
$  78   4
$  79   1
$  79   2
$  79   3
$  80   2
$  80   3
$  80   4
$  81   4
$  82   1
$  82   2
$  83   2
$  84   1
$  84   2
$  84   3
$  85   2
$  85   3
$  86   2
$  87   3
$  88   1
$  88   2
$  88   3
$  89   3
$  89   4
$  90   2
$  90   3
$  91   5
$  92   4
$  93   1
$  93   4
$  94   3
$  95   1
$  95   2
$  95   3
$  95   4
$  96   4
$  97   1
$  97   3
$  98   2
$  98   3
$  98   4
$  99   5
$ 100   3
$ 101   2
$ 102   4
$ 103   3
$ 103   4
$ 104   4
$ 105   1
$ 106   1
$ 106   2
$ 107   1
$ 107   4
$ 108   1
$ 108   2
$ 108   4
$ 109   2
$ 109   3
$ 110   5

